p cnf 196 780
c p weight 82 0 0
c p weight -82 1 0
c p weight 83 1.0 0
c p weight -83 1 0
78 -77 75 0
78 -77 76 0
-78 77 75 0
-78 77 76 0
78 77 -75 -76 0
-78 -77 -75 -76 0
79 75 -76 0
79 -75 76 0
-79 75 76 0
-79 -75 -76 0
80 81 -78 0
80 -78 79 0
-80 81 78 0
-80 78 79 0
80 -78 -75 0
-80 78 -75 0
80 -81 78 75 -79 0
-80 -81 -78 75 -79 0
81 -75 79 0
-81 75 79 0
-82 79 0
81 -82 -75 0
-81 -82 75 0
81 82 75 -79 0
-81 82 -75 -79 0
-83 79 0
81 -83 75 0
-81 -83 -75 0
81 83 -75 -79 0
-81 83 75 -79 0
84 -80 81 0
84 -80 79 0
-84 80 81 0
-84 80 79 0
84 80 -81 -79 0
-84 -80 -81 -79 0
85 81 -79 0
85 -81 79 0
-85 81 79 0
-85 -81 -79 0
86 -84 81 0
86 -84 74 0
-86 84 81 0
-86 84 74 0
86 -84 73 -85 0
86 -84 -73 85 0
-86 84 73 -85 0
-86 84 -73 85 0
86 84 -81 73 85 -74 0
86 84 -81 -73 -85 -74 0
-86 -84 -81 73 85 -74 0
-86 -84 -81 -73 -85 -74 0
88 81 -73 0
88 -81 73 0
-88 81 73 0
-88 -81 -73 0
87 85 -74 0
87 -85 74 0
-87 85 74 0
-87 -85 -74 0
89 -86 88 0
89 -86 72 0
-89 86 88 0
-89 86 72 0
89 -86 71 -74 0
89 -86 -71 74 0
-89 86 71 -74 0
-89 86 -71 74 0
89 86 -88 71 74 -72 0
89 86 -88 -71 -74 -72 0
-89 -86 -88 71 74 -72 0
-89 -86 -88 -71 -74 -72 0
91 88 -71 0
91 -88 71 0
-91 88 71 0
-91 -88 -71 0
90 74 -72 0
90 -74 72 0
-90 74 72 0
-90 -74 -72 0
92 -89 91 0
92 -89 70 0
-92 89 91 0
-92 89 70 0
92 -89 69 -72 0
92 -89 -69 72 0
-92 89 69 -72 0
-92 89 -69 72 0
92 89 -91 69 72 -70 0
92 89 -91 -69 -72 -70 0
-92 -89 -91 69 72 -70 0
-92 -89 -91 -69 -72 -70 0
94 91 -69 0
94 -91 69 0
-94 91 69 0
-94 -91 -69 0
93 72 -70 0
93 -72 70 0
-93 72 70 0
-93 -72 -70 0
95 -92 94 0
95 -92 68 0
-95 92 94 0
-95 92 68 0
95 -92 67 -70 0
95 -92 -67 70 0
-95 92 67 -70 0
-95 92 -67 70 0
95 92 -94 67 70 -68 0
95 92 -94 -67 -70 -68 0
-95 -92 -94 67 70 -68 0
-95 -92 -94 -67 -70 -68 0
97 94 -67 0
97 -94 67 0
-97 94 67 0
-97 -94 -67 0
96 70 -68 0
96 -70 68 0
-96 70 68 0
-96 -70 -68 0
98 -95 97 0
98 -95 66 0
-98 95 97 0
-98 95 66 0
98 -95 65 -68 0
98 -95 -65 68 0
-98 95 65 -68 0
-98 95 -65 68 0
98 95 -97 65 68 -66 0
98 95 -97 -65 -68 -66 0
-98 -95 -97 65 68 -66 0
-98 -95 -97 -65 -68 -66 0
100 97 -65 0
100 -97 65 0
-100 97 65 0
-100 -97 -65 0
99 68 -66 0
99 -68 66 0
-99 68 66 0
-99 -68 -66 0
101 -98 100 0
101 -98 64 0
-101 98 100 0
-101 98 64 0
101 -98 63 -66 0
101 -98 -63 66 0
-101 98 63 -66 0
-101 98 -63 66 0
101 98 -100 63 66 -64 0
101 98 -100 -63 -66 -64 0
-101 -98 -100 63 66 -64 0
-101 -98 -100 -63 -66 -64 0
103 100 -63 0
103 -100 63 0
-103 100 63 0
-103 -100 -63 0
102 66 -64 0
102 -66 64 0
-102 66 64 0
-102 -66 -64 0
104 -101 103 0
104 -101 62 0
-104 101 103 0
-104 101 62 0
104 -101 61 -64 0
104 -101 -61 64 0
-104 101 61 -64 0
-104 101 -61 64 0
104 101 -103 61 64 -62 0
104 101 -103 -61 -64 -62 0
-104 -101 -103 61 64 -62 0
-104 -101 -103 -61 -64 -62 0
106 103 -61 0
106 -103 61 0
-106 103 61 0
-106 -103 -61 0
105 64 -62 0
105 -64 62 0
-105 64 62 0
-105 -64 -62 0
107 -104 106 0
107 -104 60 0
-107 104 106 0
-107 104 60 0
107 -104 59 -62 0
107 -104 -59 62 0
-107 104 59 -62 0
-107 104 -59 62 0
107 104 -106 59 62 -60 0
107 104 -106 -59 -62 -60 0
-107 -104 -106 59 62 -60 0
-107 -104 -106 -59 -62 -60 0
109 106 -59 0
109 -106 59 0
-109 106 59 0
-109 -106 -59 0
108 62 -60 0
108 -62 60 0
-108 62 60 0
-108 -62 -60 0
110 -107 109 0
110 -107 58 0
-110 107 109 0
-110 107 58 0
110 -107 57 -60 0
110 -107 -57 60 0
-110 107 57 -60 0
-110 107 -57 60 0
110 107 -109 57 60 -58 0
110 107 -109 -57 -60 -58 0
-110 -107 -109 57 60 -58 0
-110 -107 -109 -57 -60 -58 0
112 109 -57 0
112 -109 57 0
-112 109 57 0
-112 -109 -57 0
111 60 -58 0
111 -60 58 0
-111 60 58 0
-111 -60 -58 0
113 -110 112 0
113 -110 56 0
-113 110 112 0
-113 110 56 0
113 -110 55 -58 0
113 -110 -55 58 0
-113 110 55 -58 0
-113 110 -55 58 0
113 110 -112 55 58 -56 0
113 110 -112 -55 -58 -56 0
-113 -110 -112 55 58 -56 0
-113 -110 -112 -55 -58 -56 0
115 112 -55 0
115 -112 55 0
-115 112 55 0
-115 -112 -55 0
114 58 -56 0
114 -58 56 0
-114 58 56 0
-114 -58 -56 0
116 -113 115 0
116 -113 54 0
-116 113 115 0
-116 113 54 0
116 -113 53 -56 0
116 -113 -53 56 0
-116 113 53 -56 0
-116 113 -53 56 0
116 113 -115 53 56 -54 0
116 113 -115 -53 -56 -54 0
-116 -113 -115 53 56 -54 0
-116 -113 -115 -53 -56 -54 0
118 115 -53 0
118 -115 53 0
-118 115 53 0
-118 -115 -53 0
117 56 -54 0
117 -56 54 0
-117 56 54 0
-117 -56 -54 0
119 -116 118 0
119 -116 52 0
-119 116 118 0
-119 116 52 0
119 -116 51 -54 0
119 -116 -51 54 0
-119 116 51 -54 0
-119 116 -51 54 0
119 116 -118 51 54 -52 0
119 116 -118 -51 -54 -52 0
-119 -116 -118 51 54 -52 0
-119 -116 -118 -51 -54 -52 0
121 118 -51 0
121 -118 51 0
-121 118 51 0
-121 -118 -51 0
120 54 -52 0
120 -54 52 0
-120 54 52 0
-120 -54 -52 0
122 -119 121 0
122 -119 50 0
-122 119 121 0
-122 119 50 0
122 -119 49 -52 0
122 -119 -49 52 0
-122 119 49 -52 0
-122 119 -49 52 0
122 119 -121 49 52 -50 0
122 119 -121 -49 -52 -50 0
-122 -119 -121 49 52 -50 0
-122 -119 -121 -49 -52 -50 0
124 121 -49 0
124 -121 49 0
-124 121 49 0
-124 -121 -49 0
123 52 -50 0
123 -52 50 0
-123 52 50 0
-123 -52 -50 0
125 -122 124 0
125 -122 48 0
-125 122 124 0
-125 122 48 0
125 -122 47 -50 0
125 -122 -47 50 0
-125 122 47 -50 0
-125 122 -47 50 0
125 122 -124 47 50 -48 0
125 122 -124 -47 -50 -48 0
-125 -122 -124 47 50 -48 0
-125 -122 -124 -47 -50 -48 0
127 124 -47 0
127 -124 47 0
-127 124 47 0
-127 -124 -47 0
126 50 -48 0
126 -50 48 0
-126 50 48 0
-126 -50 -48 0
128 -125 127 0
128 -125 46 0
-128 125 127 0
-128 125 46 0
128 -125 45 -48 0
128 -125 -45 48 0
-128 125 45 -48 0
-128 125 -45 48 0
128 125 -127 45 48 -46 0
128 125 -127 -45 -48 -46 0
-128 -125 -127 45 48 -46 0
-128 -125 -127 -45 -48 -46 0
130 127 -45 0
130 -127 45 0
-130 127 45 0
-130 -127 -45 0
129 48 -46 0
129 -48 46 0
-129 48 46 0
-129 -48 -46 0
131 -128 130 0
131 -128 44 0
-131 128 130 0
-131 128 44 0
131 -128 43 -46 0
131 -128 -43 46 0
-131 128 43 -46 0
-131 128 -43 46 0
131 128 -130 43 46 -44 0
131 128 -130 -43 -46 -44 0
-131 -128 -130 43 46 -44 0
-131 -128 -130 -43 -46 -44 0
133 130 -43 0
133 -130 43 0
-133 130 43 0
-133 -130 -43 0
132 46 -44 0
132 -46 44 0
-132 46 44 0
-132 -46 -44 0
134 -131 133 0
134 -131 42 0
-134 131 133 0
-134 131 42 0
134 -131 41 -44 0
134 -131 -41 44 0
-134 131 41 -44 0
-134 131 -41 44 0
134 131 -133 41 44 -42 0
134 131 -133 -41 -44 -42 0
-134 -131 -133 41 44 -42 0
-134 -131 -133 -41 -44 -42 0
136 133 -41 0
136 -133 41 0
-136 133 41 0
-136 -133 -41 0
135 44 -42 0
135 -44 42 0
-135 44 42 0
-135 -44 -42 0
137 -134 136 0
137 -134 40 0
-137 134 136 0
-137 134 40 0
137 -134 39 -42 0
137 -134 -39 42 0
-137 134 39 -42 0
-137 134 -39 42 0
137 134 -136 39 42 -40 0
137 134 -136 -39 -42 -40 0
-137 -134 -136 39 42 -40 0
-137 -134 -136 -39 -42 -40 0
139 136 -39 0
139 -136 39 0
-139 136 39 0
-139 -136 -39 0
138 42 -40 0
138 -42 40 0
-138 42 40 0
-138 -42 -40 0
140 -137 139 0
140 -137 38 0
-140 137 139 0
-140 137 38 0
140 -137 37 -40 0
140 -137 -37 40 0
-140 137 37 -40 0
-140 137 -37 40 0
140 137 -139 37 40 -38 0
140 137 -139 -37 -40 -38 0
-140 -137 -139 37 40 -38 0
-140 -137 -139 -37 -40 -38 0
142 139 -37 0
142 -139 37 0
-142 139 37 0
-142 -139 -37 0
141 40 -38 0
141 -40 38 0
-141 40 38 0
-141 -40 -38 0
143 -140 142 0
143 -140 36 0
-143 140 142 0
-143 140 36 0
143 -140 35 -38 0
143 -140 -35 38 0
-143 140 35 -38 0
-143 140 -35 38 0
143 140 -142 35 38 -36 0
143 140 -142 -35 -38 -36 0
-143 -140 -142 35 38 -36 0
-143 -140 -142 -35 -38 -36 0
145 142 -35 0
145 -142 35 0
-145 142 35 0
-145 -142 -35 0
144 38 -36 0
144 -38 36 0
-144 38 36 0
-144 -38 -36 0
146 -143 145 0
146 -143 34 0
-146 143 145 0
-146 143 34 0
146 -143 33 -36 0
146 -143 -33 36 0
-146 143 33 -36 0
-146 143 -33 36 0
146 143 -145 33 36 -34 0
146 143 -145 -33 -36 -34 0
-146 -143 -145 33 36 -34 0
-146 -143 -145 -33 -36 -34 0
148 145 -33 0
148 -145 33 0
-148 145 33 0
-148 -145 -33 0
147 36 -34 0
147 -36 34 0
-147 36 34 0
-147 -36 -34 0
149 -146 148 0
149 -146 32 0
-149 146 148 0
-149 146 32 0
149 -146 31 -34 0
149 -146 -31 34 0
-149 146 31 -34 0
-149 146 -31 34 0
149 146 -148 31 34 -32 0
149 146 -148 -31 -34 -32 0
-149 -146 -148 31 34 -32 0
-149 -146 -148 -31 -34 -32 0
151 148 -31 0
151 -148 31 0
-151 148 31 0
-151 -148 -31 0
150 34 -32 0
150 -34 32 0
-150 34 32 0
-150 -34 -32 0
152 -149 151 0
152 -149 30 0
-152 149 151 0
-152 149 30 0
152 -149 29 -32 0
152 -149 -29 32 0
-152 149 29 -32 0
-152 149 -29 32 0
152 149 -151 29 32 -30 0
152 149 -151 -29 -32 -30 0
-152 -149 -151 29 32 -30 0
-152 -149 -151 -29 -32 -30 0
154 151 -29 0
154 -151 29 0
-154 151 29 0
-154 -151 -29 0
153 32 -30 0
153 -32 30 0
-153 32 30 0
-153 -32 -30 0
155 -152 154 0
155 -152 28 0
-155 152 154 0
-155 152 28 0
155 -152 27 -30 0
155 -152 -27 30 0
-155 152 27 -30 0
-155 152 -27 30 0
155 152 -154 27 30 -28 0
155 152 -154 -27 -30 -28 0
-155 -152 -154 27 30 -28 0
-155 -152 -154 -27 -30 -28 0
157 154 -27 0
157 -154 27 0
-157 154 27 0
-157 -154 -27 0
156 30 -28 0
156 -30 28 0
-156 30 28 0
-156 -30 -28 0
158 -155 157 0
158 -155 26 0
-158 155 157 0
-158 155 26 0
158 -155 25 -28 0
158 -155 -25 28 0
-158 155 25 -28 0
-158 155 -25 28 0
158 155 -157 25 28 -26 0
158 155 -157 -25 -28 -26 0
-158 -155 -157 25 28 -26 0
-158 -155 -157 -25 -28 -26 0
160 157 -25 0
160 -157 25 0
-160 157 25 0
-160 -157 -25 0
159 28 -26 0
159 -28 26 0
-159 28 26 0
-159 -28 -26 0
161 -158 160 0
161 -158 24 0
-161 158 160 0
-161 158 24 0
161 -158 23 -26 0
161 -158 -23 26 0
-161 158 23 -26 0
-161 158 -23 26 0
161 158 -160 23 26 -24 0
161 158 -160 -23 -26 -24 0
-161 -158 -160 23 26 -24 0
-161 -158 -160 -23 -26 -24 0
163 160 -23 0
163 -160 23 0
-163 160 23 0
-163 -160 -23 0
162 26 -24 0
162 -26 24 0
-162 26 24 0
-162 -26 -24 0
164 -161 163 0
164 -161 22 0
-164 161 163 0
-164 161 22 0
164 -161 21 -24 0
164 -161 -21 24 0
-164 161 21 -24 0
-164 161 -21 24 0
164 161 -163 21 24 -22 0
164 161 -163 -21 -24 -22 0
-164 -161 -163 21 24 -22 0
-164 -161 -163 -21 -24 -22 0
166 163 -21 0
166 -163 21 0
-166 163 21 0
-166 -163 -21 0
165 24 -22 0
165 -24 22 0
-165 24 22 0
-165 -24 -22 0
167 -164 166 0
167 -164 20 0
-167 164 166 0
-167 164 20 0
167 -164 19 -22 0
167 -164 -19 22 0
-167 164 19 -22 0
-167 164 -19 22 0
167 164 -166 19 22 -20 0
167 164 -166 -19 -22 -20 0
-167 -164 -166 19 22 -20 0
-167 -164 -166 -19 -22 -20 0
169 166 -19 0
169 -166 19 0
-169 166 19 0
-169 -166 -19 0
168 22 -20 0
168 -22 20 0
-168 22 20 0
-168 -22 -20 0
170 -167 169 0
170 -167 18 0
-170 167 169 0
-170 167 18 0
170 -167 17 -20 0
170 -167 -17 20 0
-170 167 17 -20 0
-170 167 -17 20 0
170 167 -169 17 20 -18 0
170 167 -169 -17 -20 -18 0
-170 -167 -169 17 20 -18 0
-170 -167 -169 -17 -20 -18 0
172 169 -17 0
172 -169 17 0
-172 169 17 0
-172 -169 -17 0
171 20 -18 0
171 -20 18 0
-171 20 18 0
-171 -20 -18 0
173 -170 172 0
173 -170 16 0
-173 170 172 0
-173 170 16 0
173 -170 15 -18 0
173 -170 -15 18 0
-173 170 15 -18 0
-173 170 -15 18 0
173 170 -172 15 18 -16 0
173 170 -172 -15 -18 -16 0
-173 -170 -172 15 18 -16 0
-173 -170 -172 -15 -18 -16 0
175 172 -15 0
175 -172 15 0
-175 172 15 0
-175 -172 -15 0
174 18 -16 0
174 -18 16 0
-174 18 16 0
-174 -18 -16 0
176 -173 175 0
176 -173 14 0
-176 173 175 0
-176 173 14 0
176 -173 13 -16 0
176 -173 -13 16 0
-176 173 13 -16 0
-176 173 -13 16 0
176 173 -175 13 16 -14 0
176 173 -175 -13 -16 -14 0
-176 -173 -175 13 16 -14 0
-176 -173 -175 -13 -16 -14 0
178 175 -13 0
178 -175 13 0
-178 175 13 0
-178 -175 -13 0
177 16 -14 0
177 -16 14 0
-177 16 14 0
-177 -16 -14 0
179 -176 178 0
179 -176 12 0
-179 176 178 0
-179 176 12 0
179 -176 11 -14 0
179 -176 -11 14 0
-179 176 11 -14 0
-179 176 -11 14 0
179 176 -178 11 14 -12 0
179 176 -178 -11 -14 -12 0
-179 -176 -178 11 14 -12 0
-179 -176 -178 -11 -14 -12 0
181 178 -11 0
181 -178 11 0
-181 178 11 0
-181 -178 -11 0
180 14 -12 0
180 -14 12 0
-180 14 12 0
-180 -14 -12 0
182 -179 181 0
182 -179 10 0
-182 179 181 0
-182 179 10 0
182 -179 9 -12 0
182 -179 -9 12 0
-182 179 9 -12 0
-182 179 -9 12 0
182 179 -181 9 12 -10 0
182 179 -181 -9 -12 -10 0
-182 -179 -181 9 12 -10 0
-182 -179 -181 -9 -12 -10 0
184 181 -9 0
184 -181 9 0
-184 181 9 0
-184 -181 -9 0
183 12 -10 0
183 -12 10 0
-183 12 10 0
-183 -12 -10 0
185 -182 184 0
185 -182 8 0
-185 182 184 0
-185 182 8 0
185 -182 7 -10 0
185 -182 -7 10 0
-185 182 7 -10 0
-185 182 -7 10 0
185 182 -184 7 10 -8 0
185 182 -184 -7 -10 -8 0
-185 -182 -184 7 10 -8 0
-185 -182 -184 -7 -10 -8 0
187 184 -7 0
187 -184 7 0
-187 184 7 0
-187 -184 -7 0
186 10 -8 0
186 -10 8 0
-186 10 8 0
-186 -10 -8 0
188 -185 187 0
188 -185 6 0
-188 185 187 0
-188 185 6 0
188 -185 5 -8 0
188 -185 -5 8 0
-188 185 5 -8 0
-188 185 -5 8 0
188 185 -187 5 8 -6 0
188 185 -187 -5 -8 -6 0
-188 -185 -187 5 8 -6 0
-188 -185 -187 -5 -8 -6 0
190 187 -5 0
190 -187 5 0
-190 187 5 0
-190 -187 -5 0
189 8 -6 0
189 -8 6 0
-189 8 6 0
-189 -8 -6 0
191 -188 190 0
191 -188 4 0
-191 188 190 0
-191 188 4 0
191 -188 3 -6 0
191 -188 -3 6 0
-191 188 3 -6 0
-191 188 -3 6 0
191 188 -190 3 6 -4 0
191 188 -190 -3 -6 -4 0
-191 -188 -190 3 6 -4 0
-191 -188 -190 -3 -6 -4 0
193 190 -3 0
193 -190 3 0
-193 190 3 0
-193 -190 -3 0
192 6 -4 0
192 -6 4 0
-192 6 4 0
-192 -6 -4 0
194 -191 193 0
194 -191 2 0
-194 191 193 0
-194 191 2 0
194 -191 1 -4 0
194 -191 -1 4 0
-194 191 1 -4 0
-194 191 -1 4 0
194 191 -193 1 4 -2 0
194 191 -193 -1 -4 -2 0
-194 -191 -193 1 4 -2 0
-194 -191 -193 -1 -4 -2 0
196 193 -1 0
196 -193 1 0
-196 193 1 0
-196 -193 -1 0
195 4 -2 0
195 -4 2 0
-195 4 2 0
-195 -4 -2 0
